362 367
392 397
407 412
422 427
437 442
452 457
467 472
482 487
497 502
512 517
527 532
542 547
557 562
572 577
587 592
602 607
632 637
662 667
692 697
722 727
752 757
782 787
812 817
842 847
872 877
902 907
932 937
962 967
992 997
1022 1027
1037 1042
1052 1057
1067 1072
1082 1087
1097 1102
1112 1117
1127 1132
1142 1147
1172 1177
1202 1207
1232 1237
1262 1267
1292 1297
1322 1327
1352 1357
1382 1387
1412 1417
1442 1447
1472 1477
1502 1507
